(declare-const a Real)
(declare-const b Real)
(declare-const c Real)
(assert (= (* a b c) 1))
(assert (> a 0))
(assert (> b 0))
(assert (> c 0))
(assert (not (<= (+ (* -2048 (pow b 4)) (* -1024 (pow a 4)) (* (pow (+ 48 (* 768 (pow a (/ 2 3)) (pow b (/ 10 3))) (* 1536 a (pow b 3))) -3) (pow (+ (* 48 a) (* 48 b) (* 768 (pow a (/ 2 3)) (pow b (/ 10 3))) (* 1536 a (pow b 3))) 4)) (* -2048 (pow a (pow 3 -1)) (pow b (/ 11 3))) (* -1024 (pow a (/ 10 3)) (pow b (/ 2 3))) (* 1536 (pow a (/ 4 3)) (pow b (/ 8 3))) (* 1536 (pow a (/ 5 3)) (pow b (/ 7 3)))) 0)))
(check-sat)
(get-model)
(exit)